/*bin xs1,xs2,xs3,xh1,xh2,xh3,xc12,xc2;*/

max: 10.25xs1 + 13.3xs2 + 7.51xs3 + 9.2xh1 + 11.7xh2 + 17xh3 + 29.3xc1 + 25xc2;

xs1+ + xs2 + xs3 + xh1 + xh2 + xh3 + xc1 + xc2 = 2500000;
xs1 + xs2 + xs3 <= 1000000;
xh1 + xh2 + xh3 <= 1000000;
xc1 + xc2 <= 1000000;
xs1 >= 100000;
xs2 >= 100000;
xs3 >= 100000;
xh1 >= 100000;
xh2 >= 100000;
xh3 >= 100000;
xc1 >= 100000;
xc2 >= 100000;


/*bin xs1,xs2,xs3,xh1,xh2,xh3,xc12,xc2;*/